(set-info :smt-lib-version 2.6)
(set-logic QF_UFLRA)
(set-info :source |
MathSat group

|)
(set-info :category "random")
(set-info :status unsat)
(declare-fun x0 () Real)
(declare-fun x1 () Real)
(declare-fun x2 () Real)
(declare-fun x3 () Real)
(declare-fun x4 () Real)
(declare-fun x5 () Real)
(declare-fun x6 () Real)
(declare-fun x7 () Real)
(declare-fun x8 () Real)
(declare-fun x9 () Real)
(declare-fun x10 () Real)
(declare-fun x11 () Real)
(declare-fun x12 () Real)
(declare-fun x13 () Real)
(declare-fun x14 () Real)
(declare-fun x15 () Real)
(declare-fun x16 () Real)
(declare-fun x17 () Real)
(declare-fun x18 () Real)
(declare-fun x19 () Real)
(declare-fun x20 () Real)
(declare-fun x21 () Real)
(declare-fun x22 () Real)
(declare-fun x23 () Real)
(declare-fun x24 () Real)
(declare-fun x25 () Real)
(declare-fun x26 () Real)
(declare-fun x27 () Real)
(declare-fun x28 () Real)
(declare-fun x29 () Real)
(declare-fun f0_1 (Real) Real)
(declare-fun f0_2 (Real Real) Real)
(declare-fun f0_3 (Real Real Real) Real)
(declare-fun f0_4 (Real Real Real Real) Real)
(declare-fun P0 () Bool)
(declare-fun P1 () Bool)
(declare-fun P2 () Bool)
(declare-fun P3 () Bool)
(declare-fun P4 () Bool)
(declare-fun P5 () Bool)
(declare-fun P6 () Bool)
(declare-fun P7 () Bool)
(declare-fun P8 () Bool)
(declare-fun P9 () Bool)
(declare-fun P10 () Bool)
(declare-fun P11 () Bool)
(declare-fun P12 () Bool)
(declare-fun P13 () Bool)
(declare-fun P14 () Bool)
(declare-fun P15 () Bool)
(declare-fun P16 () Bool)
(declare-fun P17 () Bool)
(declare-fun P18 () Bool)
(declare-fun P19 () Bool)
(declare-fun P20 () Bool)
(declare-fun P21 () Bool)
(declare-fun P22 () Bool)
(declare-fun P23 () Bool)
(declare-fun P24 () Bool)
(declare-fun P25 () Bool)
(declare-fun P26 () Bool)
(declare-fun P27 () Bool)
(declare-fun P28 () Bool)
(declare-fun P29 () Bool)
(assert (let ((?v_38 (* 35 x19)) (?v_3 (<= (+ (- (* 25 x1) (* 40 x6)) (* 9 x8)) 14)) (?v_66 (< (- (+ (* 22 x12) (* 29 x1)) (* 15 x25)) 21)) (?v_41 (* 38 x7))) (let ((?v_75 (< (+ (- (* 7 x14) ?v_41) (* 4 x1)) 6)) (?v_87 (* 2 x27)) (?v_25 (<= (- (+ ?v_38 (* 9 x22)) (* 41 x28)) 23)) (?v_104 (<= (- (+ (* 27 x16) (* 39 x20)) (* 15 x15)) 0)) (?v_131 (= (f0_2 x4 x5) (f0_1 x19))) (?v_82 (distinct (f0_2 x11 x23) (f0_2 x10 x8))) (?v_134 (= x4 (f0_2 x20 x4))) (?v_0 (f0_1 x22))) (let ((?v_136 (distinct (f0_1 x8) ?v_0)) (?v_4 (distinct x4 (f0_2 x29 x1))) (?v_158 (= (f0_2 x10 x19) x22)) (?v_108 (= x28 (f0_2 x12 x29))) (?v_21 (f0_1 x16))) (let ((?v_80 (= ?v_21 x22)) (?v_47 (distinct (f0_2 x7 x21) (f0_1 x20))) (?v_22 (f0_1 x18))) (let ((?v_57 (distinct (f0_2 x8 x0) ?v_22)) (?v_39 (= (f0_2 x2 x13) x4)) (?v_91 (distinct (f0_2 x16 x18) (f0_2 x29 x21))) (?v_23 (distinct (f0_2 x3 x13) (f0_2 x2 x7))) (?v_15 (distinct (f0_1 x7) (f0_2 x20 x8))) (?v_24 (f0_1 x23))) (let ((?v_37 (distinct (f0_2 x22 x16) ?v_24)) (?v_127 (= (f0_2 x19 x28) x11)) (?v_36 (f0_1 x4))) (let ((?v_83 (distinct ?v_36 x15)) (?v_16 (= x12 x0)) (?v_43 (= x27 x28)) (?v_9 (= (f0_1 x3) (f0_2 x5 x22))) (?v_129 (= (f0_2 x16 x15) x24)) (?v_8 (f0_1 x17))) (let ((?v_84 (distinct ?v_8 ?v_8)) (?v_44 (f0_1 x28))) (let ((?v_58 (= (f0_1 x1) ?v_44)) (?v_118 (distinct (f0_2 x16 x21) x24)) (?v_59 (distinct x21 ?v_44)) (?v_76 (distinct ?v_0 (f0_2 x18 x15))) (?v_98 (= x17 ?v_0)) (?v_50 (distinct ?v_21 ?v_22)) (?v_72 (distinct (f0_2 x24 x26) ?v_36)) (?v_61 (distinct ?v_24 x2)) (?v_1 (not ?v_16)) (?v_99 (not ?v_3)) (?v_69 (not ?v_104)) (?v_19 (not P7)) (?v_6 (not ?v_4)) (?v_7 (not ?v_57)) (?v_112 (not P26)) (?v_92 (not P4)) (?v_117 (not P3)) (?v_13 (not P18)) (?v_119 (not P22))) (let ((?v_71 (not ?v_59)) (?v_51 (not P17)) (?v_14 (not ?v_9)) (?v_86 (not P29)) (?v_49 (not P8)) (?v_79 (not ?v_23)) (?v_95 (not P25)) (?v_53 (not ?v_134)) (?v_68 (not P21)) (?v_101 (not ?v_80)) (?v_48 (not ?v_50)) (?v_78 (not ?v_72)) (?v_137 (not P12)) (?v_88 (not ?v_25)) (?v_155 (not ?v_91)) (?v_94 (not ?v_83)) (?v_73 (not ?v_127)) (?v_100 (not ?v_129)) (?v_116 (not ?v_39)) (?v_105 (not P19)) (?v_64 (not P9)) (?v_148 (not P0)) (?v_110 (not ?v_75)) (?v_126 (not ?v_58)) (?v_157 (not ?v_15)) (?v_89 (not P14)) (?v_55 (not P27))) (let ((?v_166 (or P23 ?v_55)) (?v_125 (not ?v_61)) (?v_70 (not ?v_66)) (?v_128 (not P23)) (?v_142 (not P16)) (?v_140 (not P6)) (?v_124 (not ?v_76)) (?v_85 (not P20)) (?v_120 (not P10)) (?v_147 (not P15)) (?v_103 (not ?v_136)) (?v_111 (not P11)) (?v_107 (not P24)) (?v_102 (not ?v_98)) (?v_133 (not P2)) (?v_106 (not ?v_131))) (let ((?v_162 (or ?v_58 ?v_85)) (?v_152 (not P1)) (?v_114 (not ?v_108)) (?v_141 (not ?v_37)) (?v_160 (not P28)) (?v_149 (not ?v_84)) (?v_145 (not P13)) (?v_146 (not ?v_47)) (?v_153 (not P5)) (?v_163 (or ?v_133 P29)) (?v_156 (not ?v_118)) (?v_143 (not ?v_82)) (?v_138 (not ?v_43)) (?v_164 (or ?v_124 ?v_134)) (?v_159 (not ?v_158)) (?v_35 (< (+ (* 19 x7) (* 8 x2) (* 21 x20)) 40)) (?v_2 (< (- (* 25 x5) x20) 19)) (?v_5 (<= (+ (- 0 (* 35 x29)) (* 40 x2)) 1))) (let ((?v_132 (not ?v_5)) (?v_10 (not ?v_2)) (?v_130 (distinct (+ (* 29 x14) (* 39 x18) (* 24 x25)) 28))) (let ((?v_90 (not ?v_130)) (?v_54 (<= (- (* 22 x29) (* 24 x17)) 6)) (?v_30 (<= (+ (* 30 x3) (* 33 x12) (* 37 x7)) 43))) (let ((?v_52 (not ?v_30)) (?v_17 (< (+ (- (* 13 x3) 0) (* 31 x3)) 15)) (?v_32 (< (- 0 ?v_87) 15)) (?v_46 (distinct (+ (* 42 x23) (* 16 x4) (* 40 x26)) 26))) (let ((?v_121 (not ?v_46)) (?v_67 (not ?v_17)) (?v_60 (not ?v_32)) (?v_42 (not ?v_35)) (?v_151 (not ?v_54)) (?v_113 (< (+ (* 18 x27) (* 35 x26) ?v_87) 42))) (let ((?v_154 (not ?v_113)) (?v_165 (or ?v_17 P6)) (?v_18 (< (- (+ (* (- 30) x10) (* 6 x26)) (* 32 x16)) (- 3)))) (let ((?v_150 (not ?v_18)) (?v_27 (<= (- (- (* 21 x2) 0) (* 39 x25)) (- 32))) (?v_28 (distinct (- (- (* (- 41) x25) (* 28 x21)) (* 22 x24)) (- 16))) (?v_56 (<= (- (+ (* 14 x25) (* 40 x19)) (* 20 x9)) (- 21)))) (let ((?v_144 (or ?v_132 ?v_56)) (?v_33 (< (+ (- (* (- 34) x18) (* 8 x6)) (* 42 x27)) 28))) (let ((?v_11 (not ?v_33)) (?v_12 (distinct (+ (- (* 32 x18) (* 15 x21)) (* 33 x29)) (- 20))) (?v_40 (<= (+ (- (* (- 8) x16) (* 38 x25)) (* 5 x6)) (- 10))) (?v_26 (< (+ (* (- 32) x18) (* 22 x27) (* 2 x2)) 39))) (let ((?v_93 (not ?v_26)) (?v_96 (< (- (+ (* (- 28) x29) (* 3 x18)) x14) (- 9))) (?v_20 (<= (+ (- (* (- 14) x26) (* 33 x21)) (* 6 x7)) (- 41)))) (let ((?v_45 (not ?v_20)) (?v_29 (not ?v_12)) (?v_31 (< (+ (- (* (- 20) x20) (* 12 x20)) ?v_41) 37))) (let ((?v_34 (not ?v_31)) (?v_74 (not ?v_27)) (?v_81 (not ?v_28)) (?v_109 (< (+ (* (- 36) x27) ?v_38 (* 5 x11)) (- 16))) (?v_63 (< (+ (* 41 x15) (* 38 x6) (* 14 x21)) (- 9))) (?v_62 (not ?v_40)) (?v_65 (<= (- (+ (* (- 41) x13) (* 12 x8)) (* 22 x8)) 34))) (let ((?v_77 (not ?v_65)) (?v_115 (not ?v_56)) (?v_123 (< (- (- (* (- 9) x21) (* 19 x5)) (* 33 x20)) 37))) (let ((?v_97 (not ?v_123))) (let ((?v_122 (or ?v_97 P10)) (?v_135 (not ?v_109)) (?v_139 (not ?v_63)) (?v_161 (not ?v_96))) (and (and (and (and (and (and (and (and (and (and (and (and (and (and (and (and (and (and (and (and (and (and (and (and (and (and (and (and (and (and (and (and (and (and (and (and (and (and (and (and (and (and (and (and (and (and (and (and (and (and (and (and (and (and (and (and (and (and (and (and (and (and (and (and (and (and (and (and (and (and (and (and (and (and (and (and (and (and (and (and (and (and (and (and (and (and (and (and (and (and (and (and (and (and (and (and (and (and (and (and (and (and (and (and (and (and (and (and (and (and (and (and (and (and (and (and (and (and (and (and (and (and (and (and (and (and (and (and (and (and (and (and (and (and (and (and (and (and (and (and (and (and (and (and (and (and (and (and (and (and (and (and (and (and (and (and (and (and (and (and (and (and (and (and (and (and (and (and (and (and (and (and (and (and (and (and (and (and (and (and (and (and (and (and (and (and (and (and (and (and (and (and (and (and (and (and (and (and (and (and (and (and (and (and (and (and (and (and (and (and (and (and (and (and (and (and (and (and (and (and (and (and (and (and (and (and (and (and (and (and (and (and (and (and (and (and (and (and (and (and (and (and (and (and (and (and (and (and (and (and (and (and (and (and (and (and (and (and (and (and (and (and (and (and (and (and (and (and (and (and (and (and (and (and (and (and (and (and (and (and (and (and (and (and (and (and (and (and (and (and (and (and (and (and (and (and (and (and (and (and (and (and (and (and (and (and (and (and (and (and (and (and (and (and (and (and (and (and (and (and (and (and (and (and (and (and (and (and (and (and (and (and (and (and (and (and (and (and (and (and (and (and (and (and (and (and (and (and (and (and (and (and (and (and (and (and (and (and (and (and (and (and (and (and (and (and (and (and (and (and (and (and (and (and (and (and (and (and (and (and (and (and (and (and (and (and (and (and (and (and (and (and (and (and (and (and (and (and (and (and (and (and (and (and (and (and (and (and (and (and (and (and (and (and (and (and (and (and (and (and (and (and (and (and (and (and (and (and (and (and (and (and (and (and (and (and (and (and (and (and (and (and (and (and (and (and (and (and (and (or (or ?v_98 ?v_150) ?v_27) (or (or ?v_76 P19) ?v_35)) (or (or ?v_4 ?v_1) ?v_28)) (or (or ?v_99 ?v_2) P1)) (or (or P11 ?v_66) ?v_1)) (or ?v_144 ?v_10)) (or (or ?v_3 ?v_69) ?v_19)) (or (or ?v_11 P2) ?v_12)) (or (or ?v_6 ?v_40) P18)) (or (or ?v_7 ?v_39) ?v_118)) (or (or ?v_90 ?v_54) ?v_93)) (or (or P4 ?v_5) ?v_15)) (or (or ?v_112 ?v_9) ?v_37)) (or (or ?v_6 P28) ?v_96)) (or (or ?v_92 ?v_117) ?v_13)) (or (or ?v_119 ?v_45) ?v_7)) (or (or ?v_71 ?v_84) P26)) (or (or ?v_43 ?v_51) ?v_47)) (or (or ?v_14 P15) ?v_52)) (or (or ?v_86 ?v_49) ?v_4)) (or (or ?v_25 ?v_79) P23)) (or (or P3 ?v_10) ?v_17)) (or (or ?v_11 ?v_29) ?v_13)) (or (or ?v_95 ?v_14) ?v_53)) (or (or ?v_15 ?v_16) ?v_68)) (or (or ?v_32 ?v_121) ?v_67)) (or (or ?v_101 ?v_18) ?v_19)) (or (or ?v_20 P12) P14)) (or (or ?v_48 ?v_78) ?v_137)) (or (or ?v_23 ?v_61) P3)) (or (or ?v_12 ?v_18) ?v_10)) (or (or ?v_34 ?v_88) ?v_26)) (or (or ?v_74 ?v_81) P10)) (or (or ?v_29 ?v_30) ?v_31)) (or (or ?v_60 ?v_33) P7)) (or (or ?v_3 ?v_155) ?v_34)) (or (or ?v_17 P22) ?v_42)) (or (or ?v_94 ?v_73) ?v_15)) (or (or ?v_37 ?v_100) ?v_109)) (or (or P27 ?v_116) ?v_105)) (or (or ?v_7 ?v_64) ?v_35)) (or (or ?v_63 ?v_62) ?v_148)) (or (or P1 ?v_26) ?v_6)) (or (or ?v_39 ?v_110) ?v_42)) (or (or ?v_43 ?v_126) ?v_45)) (or (or ?v_157 ?v_46) ?v_89)) (or (or ?v_47 ?v_77) P5)) (or (or ?v_6 ?v_48) ?v_49)) (or (or ?v_5 ?v_3) ?v_158)) (or (or ?v_50 ?v_51) ?v_55)) (or (or P11 ?v_52) ?v_53)) (or (or P9 P20) ?v_151)) (or ?v_166 ?v_56)) (or (or ?v_54 ?v_57) ?v_55)) (or (or ?v_58 ?v_46) P3)) (or (or ?v_59 ?v_60) P26)) (or (or ?v_61 ?v_62) P18)) (or (or P8 ?v_63) P13)) (or (or ?v_64 P26) ?v_46)) (or (or ?v_65 ?v_115) ?v_19)) (or (or ?v_125 ?v_82) ?v_70)) (or (or ?v_25 ?v_67) ?v_128)) (or (or ?v_142 P4) ?v_68)) (or (or ?v_18 ?v_69) ?v_108)) (or (or ?v_59 P16) ?v_70)) (or (or ?v_28 ?v_71) ?v_55)) (or (or ?v_72 ?v_73) ?v_74)) (or (or ?v_1 ?v_51) ?v_75)) (or (or ?v_97 ?v_67) P16)) (or (or ?v_67 ?v_9) ?v_140)) (or (or ?v_124 ?v_16) ?v_33)) (or (or ?v_7 ?v_75) P4)) (or (or P6 ?v_46) ?v_77)) (or (or P9 ?v_85) ?v_78)) (or (or ?v_79 ?v_80) ?v_57)) (or (or ?v_13 ?v_63) ?v_81)) (or (or ?v_82 ?v_65) ?v_39)) (or (or ?v_83 ?v_60) ?v_50)) (or (or ?v_10 ?v_40) ?v_37)) (or (or ?v_84 P11) P8)) (or (or ?v_120 ?v_85) ?v_86)) (or (or ?v_75 ?v_48) ?v_16)) (or (or ?v_53 ?v_154) ?v_46)) (or (or ?v_1 ?v_43) ?v_88)) (or (or ?v_75 ?v_89) ?v_60)) (or (or ?v_147 ?v_103) P3)) (or (or ?v_12 P11) P13)) (or (or ?v_90 ?v_91) ?v_43)) (or (or P15 ?v_90) ?v_66)) (or ?v_165 ?v_111)) (or (or ?v_92 ?v_70) ?v_10)) (or (or ?v_54 ?v_93) ?v_94)) (or (or ?v_95 ?v_96) ?v_107)) (or (or ?v_46 ?v_70) P24)) (or (or ?v_6 ?v_26) ?v_97)) (or (or ?v_65 ?v_51) ?v_102)) (or (or ?v_99 ?v_100) ?v_25)) (or (or ?v_86 ?v_133) ?v_101)) (or (or ?v_85 P19) ?v_61)) (or (or ?v_73 ?v_106) ?v_102)) (or (or ?v_33 ?v_92) ?v_103)) (or (or ?v_102 ?v_104) ?v_89)) (or ?v_162 ?v_10)) (or (or ?v_7 ?v_105) ?v_152)) (or (or P18 ?v_106) P10)) (or ?v_122 ?v_107)) (or (or P29 ?v_108) P5)) (or (or ?v_68 ?v_77) ?v_5)) (or (or ?v_62 ?v_135) ?v_66)) (or (or ?v_110 ?v_111) ?v_106)) (or (or P9 ?v_98) ?v_112)) (or (or ?v_96 ?v_91) ?v_113)) (or (or P21 ?v_86) ?v_29)) (or (or ?v_64 ?v_61) ?v_55)) (or (or ?v_45 ?v_73) ?v_114)) (or (or ?v_73 ?v_7) ?v_70)) (or (or ?v_81 ?v_73) ?v_114)) (or (or ?v_4 ?v_32) ?v_115)) (or (or ?v_47 ?v_46) P15)) (or (or ?v_116 P27) ?v_117)) (or (or P11 ?v_62) ?v_76)) (or (or ?v_92 ?v_98) ?v_40)) (or (or ?v_141 ?v_118) ?v_115)) (or (or ?v_119 ?v_100) ?v_102)) (or (or ?v_53 P7) ?v_120)) (or (or ?v_101 ?v_20) ?v_121)) (or ?v_122 ?v_54)) (or (or ?v_86 P22) ?v_123)) (or (or ?v_104 ?v_124) ?v_123)) (or (or ?v_17 ?v_46) ?v_100)) (or (or ?v_125 ?v_111) ?v_101)) (or (or ?v_91 ?v_126) ?v_62)) (or (or ?v_33 ?v_127) ?v_128)) (or (or ?v_76 ?v_129) ?v_130)) (or (or P0 ?v_27) ?v_160)) (or (or P22 ?v_89) P21)) (or (or P12 P14) P23)) (or (or ?v_75 ?v_83) ?v_131)) (or (or ?v_101 ?v_79) ?v_40)) (or (or P23 ?v_121) ?v_16)) (or (or ?v_33 ?v_124) ?v_80)) (or (or ?v_20 ?v_107) P26)) (or (or ?v_99 ?v_29) ?v_102)) (or (or ?v_114 ?v_62) ?v_32)) (or (or ?v_47 ?v_37) ?v_34)) (or (or ?v_118 ?v_129) ?v_149)) (or (or ?v_84 ?v_45) ?v_145)) (or (or ?v_123 ?v_65) ?v_132)) (or (or ?v_27 ?v_109) ?v_79)) (or (or ?v_93 ?v_13) ?v_146)) (or (or P14 ?v_53) ?v_153)) (or ?v_163 ?v_156)) (or (or ?v_32 ?v_128) ?v_139)) (or (or ?v_18 ?v_50) ?v_13)) (or (or ?v_84 ?v_126) P14)) (or (or ?v_49 ?v_68) ?v_83)) (or (or ?v_85 ?v_98) ?v_82)) (or (or ?v_71 P2) P6)) (or (or ?v_134 ?v_97) ?v_76)) (or (or P29 ?v_135) ?v_136)) (or (or ?v_40 P26) ?v_85)) (or (or P9 ?v_143) ?v_80)) (or (or ?v_88 ?v_88) P21)) (or (or ?v_61 ?v_130) ?v_95)) (or (or ?v_138 P26) ?v_137)) (or (or P24 ?v_37) ?v_106)) (or (or ?v_111 ?v_27) ?v_77)) (or (or ?v_65 ?v_104) ?v_72)) (or (or ?v_138 P7) ?v_66)) (or (or ?v_126 ?v_139) ?v_33)) (or (or ?v_130 ?v_32) ?v_63)) (or (or ?v_3 ?v_136) ?v_23)) (or (or ?v_4 ?v_128) ?v_40)) (or (or ?v_2 ?v_74) P6)) (or (or ?v_39 ?v_140) P27)) (or (or ?v_117 ?v_139) P10)) (or (or ?v_123 ?v_112) ?v_45)) (or (or P14 ?v_37) P11)) (or (or ?v_10 ?v_136) ?v_27)) (or (or P12 P12) ?v_141)) (or (or ?v_142 ?v_143) P9)) (or (or P2 ?v_43) ?v_141)) (or (or ?v_30 ?v_121) P26)) (or ?v_144 ?v_88)) (or (or ?v_59 ?v_12) ?v_50)) (or (or P8 ?v_120) ?v_145)) (or (or ?v_47 ?v_141) ?v_73)) (or (or ?v_23 ?v_93) ?v_71)) (or (or ?v_74 P1) P9)) (or (or P1 ?v_40) ?v_91)) (or (or ?v_68 P3) ?v_46)) (or (or ?v_75 ?v_102) ?v_120)) (or (or ?v_103 ?v_55) ?v_146)) (or (or ?v_31 ?v_46) ?v_147)) (or (or P15 ?v_30) ?v_139)) (or (or ?v_115 ?v_161) ?v_104)) (or (or P8 P2) ?v_5)) (or (or ?v_62 ?v_126) ?v_148)) (or (or P8 ?v_69) ?v_149)) (or (or ?v_29 ?v_23) ?v_58)) (or (or ?v_130 ?v_91) ?v_149)) (or (or ?v_102 ?v_96) ?v_7)) (or (or ?v_150 ?v_151) ?v_59)) (or ?v_164 ?v_143)) (or (or ?v_83 ?v_10) ?v_93)) (or (or ?v_152 ?v_52) ?v_130)) (or (or P25 P14) P13)) (or (or ?v_96 ?v_109) P11)) (or (or ?v_34 ?v_61) P3)) (or (or ?v_71 ?v_28) ?v_130)) (or (or ?v_3 ?v_103) P22)) (or (or ?v_61 ?v_147) P10)) (or (or P22 ?v_43) P29)) (or (or ?v_86 ?v_82) ?v_76)) (or (or ?v_61 P6) P11)) (or (or ?v_139 ?v_103) P14)) (or (or ?v_127 ?v_61) P17)) (or (or ?v_32 ?v_80) ?v_13)) (or (or P3 ?v_15) ?v_73)) (or (or ?v_82 ?v_146) ?v_11)) (or (or ?v_14 ?v_49) ?v_46)) (or (or ?v_9 ?v_143) ?v_151)) (or (or P7 ?v_70) ?v_123)) (or (or ?v_80 ?v_19) ?v_49)) (or (or ?v_3 ?v_59) P6)) (or (or ?v_78 ?v_50) ?v_101)) (or (or P12 ?v_60) P2)) (or (or ?v_138 P28) ?v_119)) (or (or ?v_114 ?v_42) ?v_93)) (or (or P17 P2) ?v_92)) (or (or ?v_153 ?v_149) ?v_74)) (or (or ?v_62 ?v_120) ?v_61)) (or (or ?v_154 ?v_110) ?v_112)) (or (or ?v_29 ?v_29) ?v_143)) (or (or ?v_42 ?v_67) ?v_4)) (or (or ?v_48 ?v_110) P15)) (or (or P27 ?v_54) P4)) (or (or ?v_98 ?v_111) ?v_27)) (or (or ?v_82 P15) ?v_138)) (or (or ?v_151 ?v_51) ?v_11)) (or (or P9 P11) P24)) (or (or P6 ?v_33) ?v_146)) (or (or P4 ?v_1) P22)) (or (or ?v_155 ?v_109) ?v_46)) (or (or ?v_101 ?v_146) ?v_63)) (or (or ?v_3 ?v_132) ?v_45)) (or (or ?v_84 ?v_128) P10)) (or (or ?v_28 ?v_152) P2)) (or (or ?v_29 ?v_18) ?v_101)) (or (or ?v_74 ?v_70) ?v_2)) (or (or P26 ?v_146) P2)) (or (or P5 ?v_56) ?v_12)) (or (or ?v_98 ?v_106) ?v_17)) (or (or P20 ?v_145) ?v_57)) (or (or ?v_131 ?v_26) ?v_46)) (or (or P20 ?v_137) ?v_66)) (or (or P11 ?v_147) ?v_65)) (or (or ?v_110 ?v_155) P9)) (or (or ?v_11 ?v_81) ?v_88)) (or (or ?v_42 ?v_42) ?v_150)) (or (or ?v_120 P25) ?v_91)) (or (or ?v_137 ?v_25) ?v_138)) (or (or ?v_23 ?v_98) ?v_55)) (or (or ?v_65 ?v_111) ?v_130)) (or (or ?v_108 ?v_42) ?v_67)) (or (or P8 ?v_141) ?v_62)) (or (or ?v_71 P29) ?v_156)) (or (or ?v_58 ?v_157) P13)) (or (or ?v_52 ?v_70) ?v_42)) (or (or ?v_1 ?v_103) ?v_53)) (or (or ?v_137 ?v_108) ?v_110)) (or (or ?v_23 ?v_127) ?v_133)) (or (or P14 ?v_132) ?v_111)) (or (or ?v_96 P25) P2)) (or (or ?v_159 ?v_123) P29)) (or (or P2 ?v_47) ?v_121)) (or (or ?v_26 P20) ?v_152)) (or (or ?v_4 ?v_153) ?v_18)) (or (or P7 ?v_63) P24)) (or (or ?v_72 ?v_103) ?v_2)) (or (or ?v_85 ?v_156) ?v_13)) (or (or ?v_37 ?v_124) ?v_85)) (or (or ?v_143 ?v_86) ?v_32)) (or (or ?v_111 ?v_9) ?v_5)) (or (or P1 ?v_95) ?v_102)) (or (or ?v_159 ?v_118) ?v_73)) (or (or ?v_103 ?v_95) ?v_49)) (or (or ?v_106 ?v_39) ?v_78)) (or (or ?v_151 ?v_97) ?v_106)) (or (or ?v_131 ?v_55) ?v_112)) (or (or ?v_66 ?v_11) ?v_32)) (or (or ?v_26 ?v_26) ?v_47)) (or (or ?v_141 ?v_4) ?v_160)) (or (or ?v_39 ?v_57) ?v_145)) (or (or ?v_13 ?v_101) ?v_149)) (or (or ?v_52 P4) ?v_138)) (or (or ?v_155 ?v_161) ?v_32)) (or (or ?v_97 ?v_145) ?v_94)) (or (or P15 ?v_141) ?v_53)) (or (or ?v_137 ?v_107) ?v_125)) (or (or ?v_89 ?v_98) ?v_139)) (or (or ?v_119 ?v_133) ?v_138)) (or (or P0 ?v_81) P29)) (or (or ?v_37 ?v_157) ?v_138)) (or (or ?v_158 ?v_7) ?v_154)) (or ?v_162 ?v_43)) (or (or P4 ?v_35) P18)) (or (or P26 ?v_3) ?v_143)) (or (or ?v_97 ?v_2) P20)) (or (or P17 ?v_65) ?v_118)) (or (or ?v_4 ?v_155) ?v_29)) (or (or ?v_137 ?v_28) ?v_142)) (or (or ?v_139 ?v_4) P10)) (or (or ?v_78 ?v_56) P12)) (or (or P28 ?v_145) ?v_63)) (or (or P22 ?v_45) P18)) (or (or ?v_108 P7) ?v_46)) (or (or ?v_84 ?v_28) ?v_118)) (or (or ?v_143 ?v_121) ?v_30)) (or (or ?v_53 P17) ?v_161)) (or (or ?v_120 ?v_64) ?v_105)) (or (or ?v_160 P22) ?v_103)) (or (or ?v_47 ?v_107) ?v_81)) (or (or ?v_20 P22) ?v_103)) (or ?v_163 ?v_149)) (or (or P27 P6) ?v_126)) (or (or ?v_155 ?v_106) ?v_142)) (or (or ?v_94 P27) ?v_51)) (or (or ?v_79 ?v_108) P4)) (or (or ?v_34 ?v_54) ?v_109)) (or (or ?v_148 ?v_31) ?v_3)) (or (or ?v_30 ?v_69) ?v_39)) (or (or ?v_138 ?v_64) ?v_57)) (or (or ?v_6 ?v_16) ?v_126)) (or (or ?v_135 ?v_88) ?v_102)) (or (or ?v_103 ?v_159) ?v_86)) (or (or ?v_100 ?v_112) P21)) (or (or ?v_92 ?v_131) ?v_11)) (or (or ?v_97 P16) ?v_50)) (or (or ?v_151 ?v_9) ?v_110)) (or (or P11 ?v_158) ?v_50)) (or (or P17 ?v_56) ?v_50)) (or (or ?v_86 ?v_26) ?v_27)) (or (or ?v_63 ?v_55) ?v_82)) (or (or ?v_149 ?v_64) ?v_115)) (or (or ?v_152 ?v_129) ?v_58)) (or (or ?v_16 ?v_89) P18)) (or (or ?v_121 ?v_5) ?v_52)) (or (or P20 ?v_83) ?v_19)) (or (or ?v_149 ?v_90) ?v_136)) (or (or ?v_33 ?v_23) ?v_32)) (or (or ?v_98 ?v_101) P17)) (or (or ?v_6 ?v_149) ?v_136)) (or (or ?v_88 ?v_65) ?v_46)) (or (or P21 ?v_58) ?v_121)) (or (or ?v_45 ?v_103) ?v_151)) (or (or P25 ?v_32) ?v_102)) (or (or ?v_67 ?v_76) ?v_2)) (or (or ?v_155 ?v_48) P5)) (or (or ?v_127 ?v_66) ?v_121)) (or (or ?v_45 ?v_55) ?v_16)) (or (or ?v_43 ?v_105) P10)) (or (or P8 P3) P29)) (or (or ?v_141 ?v_50) ?v_30)) (or (or ?v_65 ?v_19) ?v_3)) (or (or ?v_131 ?v_47) ?v_155)) (or (or ?v_34 ?v_108) ?v_51)) (or (or P0 ?v_52) ?v_139)) (or (or ?v_117 P20) P8)) (or (or ?v_100 ?v_99) ?v_26)) (or (or ?v_135 P15) ?v_57)) (or (or P4 ?v_100) ?v_141)) (or (or P26 ?v_78) ?v_9)) (or (or ?v_55 ?v_46) ?v_1)) (or (or ?v_45 ?v_88) ?v_156)) (or (or ?v_32 ?v_103) ?v_85)) (or (or ?v_150 ?v_97) ?v_82)) (or (or ?v_86 ?v_139) ?v_48)) (or (or ?v_92 P8) ?v_155)) (or (or ?v_19 ?v_125) ?v_161)) (or (or ?v_66 ?v_63) ?v_69)) (or (or ?v_137 P2) ?v_160)) (or (or ?v_17 ?v_95) ?v_72)) (or ?v_164 ?v_92)) (or (or P17 ?v_120) ?v_130)) (or (or ?v_103 ?v_3) ?v_49)) (or (or ?v_57 ?v_30) ?v_118)) (or (or ?v_145 P24) P25)) (or (or ?v_68 ?v_111) ?v_116)) (or (or ?v_66 ?v_26) ?v_127)) (or (or ?v_139 ?v_37) ?v_16)) (or (or ?v_148 ?v_57) ?v_18)) (or (or ?v_117 P4) ?v_5)) (or (or ?v_61 ?v_150) P28)) (or (or P23 ?v_31) ?v_13)) (or (or ?v_106 ?v_149) ?v_81)) (or ?v_165 ?v_119)) (or (or ?v_90 ?v_68) P13)) (or (or ?v_115 ?v_63) P16)) (or (or ?v_77 ?v_20) ?v_86)) (or (or ?v_137 ?v_39) P28)) (or (or ?v_129 ?v_2) ?v_45)) (or (or P13 ?v_84) ?v_2)) (or (or ?v_157 ?v_11) ?v_143)) (or (or ?v_47 ?v_73) ?v_90)) (or (or ?v_18 ?v_156) ?v_62)) (or (or P25 ?v_151) ?v_138)) (or (or ?v_148 ?v_156) ?v_141)) (or (or P12 ?v_62) ?v_76)) (or (or ?v_10 ?v_6) ?v_120)) (or (or ?v_143 ?v_18) P29)) (or (or ?v_30 ?v_158) ?v_119)) (or (or ?v_159 ?v_119) ?v_9)) (or (or ?v_91 ?v_29) ?v_140)) (or (or ?v_123 ?v_110) ?v_56)) (or (or ?v_12 ?v_84) ?v_146)) (or (or ?v_90 ?v_64) ?v_96)) (or (or ?v_53 ?v_96) ?v_136)) (or (or ?v_32 ?v_57) ?v_42)) (or (or ?v_33 ?v_52) ?v_134)) (or (or ?v_28 ?v_86) ?v_109)) (or (or P16 ?v_54) ?v_125)) (or (or ?v_142 ?v_157) ?v_25)) (or (or P19 ?v_72) ?v_43)) (or (or ?v_113 ?v_17) ?v_134)) (or (or ?v_78 ?v_97) ?v_42)) (or (or P21 ?v_55) P2)) (or (or P26 ?v_15) ?v_26)) (or (or P27 ?v_58) ?v_16)) (or (or ?v_42 ?v_59) P12)) (or (or P16 ?v_101) P1)) (or (or ?v_129 ?v_158) P24)) (or (or P24 ?v_63) ?v_103)) (or (or ?v_70 P12) P15)) (or (or ?v_37 P23) ?v_19)) (or (or ?v_85 ?v_154) ?v_48)) (or ?v_166 ?v_70)) (or (or ?v_148 ?v_4) ?v_133)) (or (or ?v_27 ?v_65) ?v_33)) (or (or ?v_69 P29) ?v_5)) (or (or ?v_81 ?v_143) ?v_76)) (or (or ?v_49 ?v_10) ?v_15)) (or (or ?v_120 ?v_73) ?v_61)) (or (or ?v_74 ?v_17) ?v_94)) (or (or ?v_55 ?v_59) P12)) (or (or P18 ?v_109) ?v_92)) (or (or ?v_116 ?v_59) ?v_100)) (or (or P5 ?v_47) ?v_18)) (or (or ?v_110 ?v_3) ?v_28)) (or (or ?v_83 ?v_129) ?v_136)))))))))))))))))))))))))))))
(check-sat)
(exit)
